n_res = 4;
rc = [ 16, 19, 19, 21 ];
n_tasks = 90;
d = [ 7, 9, 4, 3, 6, 6, 8, 5, 3, 8, 4, 4, 10, 7, 2, 9, 9, 4, 2, 9, 3, 7, 3, 9, 10, 10, 4, 8, 7, 5, 1, 2, 2, 4, 7, 4, 3, 3, 3, 6, 6, 10, 5, 9, 8, 1, 7, 6, 3, 7, 4, 1, 1, 7, 7, 6, 1, 4, 5, 3, 7, 10, 3, 3, 10, 6, 10, 8, 8, 2, 4, 4, 6, 7, 5, 1, 3, 2, 7, 8, 10, 5, 4, 4, 6, 7, 3, 5, 5, 10 ];
rr = [| 0, 0, 0, 0, 0, 0, 0, 0, 0, 0, 0, 8, 0, 2, 0, 0, 0, 0, 0, 3, 4, 7, 0, 0, 0, 0, 0, 0, 5, 0, 1, 0, 6, 9, 1, 9, 0, 0, 0, 0, 7, 6, 0, 4, 0, 5, 0, 0, 0, 0, 0, 0, 0, 0, 6, 0, 0, 0, 0, 0, 0, 0, 0, 2, 0, 0, 0, 0, 0, 0, 0, 2, 7, 0, 4, 0, 0, 0, 7, 0, 0, 0, 4, 0, 0, 0, 0, 0, 5, 0
      | 3, 0, 0, 5, 0, 0, 0, 0, 2, 0, 0, 0, 0, 0, 0, 0, 0, 0, 0, 0, 0, 0, 2, 0, 10, 0, 0, 0, 0, 6, 0, 0, 0, 0, 0, 0, 4, 1, 0, 0, 0, 0, 1, 0, 10, 0, 0, 0, 0, 8, 0, 9, 0, 0, 0, 0, 4, 0, 5, 0, 0, 0, 0, 0, 0, 0, 0, 0, 0, 0, 1, 0, 0, 0, 0, 5, 2, 1, 0, 0, 0, 0, 0, 0, 0, 0, 0, 0, 0, 0
      | 0, 0, 0, 0, 0, 2, 6, 0, 0, 0, 9, 0, 0, 0, 4, 0, 0, 0, 7, 0, 0, 0, 0, 0, 0, 10, 9, 6, 0, 0, 0, 0, 0, 0, 0, 0, 0, 0, 0, 0, 0, 0, 0, 0, 0, 0, 0, 0, 0, 0, 9, 0, 0, 0, 0, 0, 0, 0, 0, 5, 0, 7, 0, 0, 0, 7, 0, 9, 5, 0, 0, 0, 0, 9, 0, 0, 0, 0, 0, 0, 0, 0, 0, 7, 7, 0, 0, 9, 0, 8
      | 0, 4, 1, 0, 3, 0, 0, 8, 0, 4, 0, 0, 2, 0, 0, 6, 6, 3, 0, 0, 0, 0, 0, 7, 0, 0, 0, 0, 0, 0, 0, 10, 0, 0, 0, 0, 0, 0, 5, 2, 0, 0, 0, 0, 0, 0, 6, 10, 2, 0, 0, 0, 3, 5, 0, 2, 0, 8, 0, 0, 10, 0, 1, 0, 5, 0, 6, 0, 0, 10, 0, 0, 0, 0, 0, 0, 0, 0, 0, 1, 9, 5, 0, 0, 0, 10, 2, 0, 0, 0 |];
suc = [ { 2 }, 
        { 1 }, 
        { 4 }, 
        { 3 }, 
        { 6 }, 
        { 5 }, 
        { 8 }, 
        { 7 }, 
        { 10 }, 
        { 9 }, 
        { 12 }, 
        { 11 }, 
        { 14 }, 
        { 13 }, 
        { 16 }, 
        { 15 }, 
        { 18 }, 
        { 17 }, 
        { 20 }, 
        { 19 }, 
        { 22 }, 
        { 21 }, 
        { 24 }, 
        { 23 }, 
        { 26 }, 
        { 25 }, 
        { 28 }, 
        { 27 }, 
        { 30 }, 
        { 29 }, 
        { 32 }, 
        { 31 }, 
        { 34 }, 
        { 33 }, 
        { 36 }, 
        { 35 }, 
        { 38 }, 
        { 37 }, 
        { 40 }, 
        { 39 }, 
        { 42 }, 
        { 41 }, 
        { 44 }, 
        { 43 }, 
        { 46 }, 
        { 45 }, 
        { 48 }, 
        { 47 }, 
        { 50 }, 
        { 49 }, 
        { 52 }, 
        { 51 }, 
        { 54 }, 
        { 53 }, 
        { 56 }, 
        { 55 }, 
        { 58 }, 
        { 57 }, 
        { 60 }, 
        { 59 }, 
        { 62 }, 
        { 61 }, 
        { 64 }, 
        { 63 }, 
        { 66 }, 
        { 65 }, 
        { 68 }, 
        { 67 }, 
        { 70 }, 
        { 69 }, 
        { 72 }, 
        { 71 }, 
        { 74 }, 
        { 73 }, 
        { 76 }, 
        { 75 }, 
        { 78 }, 
        { 77 }, 
        { 80 }, 
        { 79 }, 
        { 82 }, 
        { 81 }, 
        { 84 }, 
        { 83 }, 
        { 86 }, 
        { 85 }, 
        { 88 }, 
        { 87 }, 
        { 90 }, 
        { 89 }]; 
